NAME: random-93-16356
TYPE: TSP
COMMENT: size=93 seed=16356
DIMENSION: 188
EDGE_WEIGHT_TYPE: EUC_2D
NODE_COORD_SECTION
+0 292 947
-0 292 947
+1 769 925
-1 121 927
+2 418 715
-2 656 475
+3 775 397
-3 894 107
+4 293 649
-4 703 701
+5 152 60
-5 853 846
+6 527 302
-6 156 303
+7 308 464
-7 349 554
+8 348 980
-8 127 252
+9 15 7
-9 901 451
+10 372 942
-10 15 929
+11 228 584
-11 11 306
+12 444 453
-12 564 457
+13 865 152
-13 36 659
+14 965 522
-14 143 938
+15 20 699
-15 176 498
+16 517 555
-16 421 100
+17 21 866
-17 805 135
+18 503 566
-18 332 172
+19 98 923
-19 915 905
+20 207 114
-20 351 136
+21 5 908
-21 853 816
+22 47 237
-22 270 318
+23 353 427
-23 516 604
+24 763 311
-24 540 546
+25 520 841
-25 117 116
+26 214 645
-26 784 952
+27 237 833
-27 429 603
+28 930 804
-28 720 604
+29 941 131
-29 825 621
+30 824 615
-30 761 776
+31 587 585
-31 248 499
+32 310 601
-32 323 685
+33 866 144
-33 482 649
+34 489 261
-34 88 746
+35 843 814
-35 616 611
+36 242 45
-36 447 91
+37 679 606
-37 949 695
+38 353 815
-38 637 464
+39 300 363
-39 131 511
+40 497 712
-40 979 492
+41 520 155
-41 495 130
+42 737 87
-42 641 469
+43 199 884
-43 650 215
+44 867 381
-44 365 923
+45 808 393
-45 375 898
+46 206 620
-46 171 758
+47 911 760
-47 835 683
+48 120 56
-48 286 784
+49 632 113
-49 29 376
+50 468 225
-50 393 306
+51 171 536
-51 666 890
+52 87 495
-52 364 693
+53 241 815
-53 273 981
+54 536 480
-54 159 636
+55 583 866
-55 254 554
+56 856 225
-56 904 551
+57 775 332
-57 618 981
+58 752 732
-58 625 130
+59 217 475
-59 600 965
+60 281 756
-60 418 265
+61 944 739
-61 29 184
+62 780 429
-62 641 70
+63 392 220
-63 416 940
+64 454 479
-64 57 24
+65 199 462
-65 942 688
+66 812 229
-66 665 236
+67 97 747
-67 121 694
+68 928 395
-68 97 217
+69 906 84
-69 677 142
+70 172 977
-70 585 325
+71 247 307
-71 831 876
+72 558 73
-72 848 311
+73 642 666
-73 592 778
+74 752 125
-74 779 303
+75 479 939
-75 630 376
+76 219 816
-76 56 649
+77 134 448
-77 796 913
+78 119 857
-78 744 490
+79 759 448
-79 329 941
+80 817 143
-80 59 700
+81 509 604
-81 294 639
+82 5 566
-82 933 203
+83 296 948
-83 847 279
+84 928 600
-84 331 141
+85 291 60
-85 945 77
+86 256 284
-86 855 737
+87 887 182
-87 902 985
+88 24 625
-88 679 835
+89 972 179
-89 104 843
+90 167 444
-90 304 56
+91 160 488
-91 12 462
+92 975 680
-92 291 930
+93 780 493
-93 285 790
PRECEDENCE_SECTION
+0 -0
+1 -1
+2 -2
+3 -3
+4 -4
+5 -5
+6 -6
+7 -7
+8 -8
+9 -9
+10 -10
+11 -11
+12 -12
+13 -13
+14 -14
+15 -15
+16 -16
+17 -17
+18 -18
+19 -19
+20 -20
+21 -21
+22 -22
+23 -23
+24 -24
+25 -25
+26 -26
+27 -27
+28 -28
+29 -29
+30 -30
+31 -31
+32 -32
+33 -33
+34 -34
+35 -35
+36 -36
+37 -37
+38 -38
+39 -39
+40 -40
+41 -41
+42 -42
+43 -43
+44 -44
+45 -45
+46 -46
+47 -47
+48 -48
+49 -49
+50 -50
+51 -51
+52 -52
+53 -53
+54 -54
+55 -55
+56 -56
+57 -57
+58 -58
+59 -59
+60 -60
+61 -61
+62 -62
+63 -63
+64 -64
+65 -65
+66 -66
+67 -67
+68 -68
+69 -69
+70 -70
+71 -71
+72 -72
+73 -73
+74 -74
+75 -75
+76 -76
+77 -77
+78 -78
+79 -79
+80 -80
+81 -81
+82 -82
+83 -83
+84 -84
+85 -85
+86 -86
+87 -87
+88 -88
+89 -89
+90 -90
+91 -91
+92 -92
+93 -93
EOF
